c Sudoku solution
p cnf 729 0
235 0
253 0
268 0
274 0
317 0
321 0
342 0
439 0
478 0
541 0
558 0
563 0
596 0
614 0
584 0
579 0
633 0
411 0
628 0
426 0
662 0
697 0
723 0
113 0
765 0
782 0
172 0
492 0
483 0
812 0
952 0
222 0
515 0
527 0
532 0
843 0
854 0
898 0
961 0
151 0
195 0
355 0
457 0
464 0
445 0
144 0
129 0
216 0
138 0
334 0
388 0
924 0
825 0
794 0
291 0
756 0
646 0
659 0
186 0
373 0
399 0
287 0
167 0
366 0
249 0
719 0
918 0
748 0
947 0
869 0
936 0
975 0
993 0
989 0
671 0
685 0
777 0
731 0
837 0
876 0
881 0
